data/processed_heuristic-threshold/instances/1/8/ds_1002_courier_87/pairwise.tsp
NAME: ds_1002_courier_87
TYPE: TSP
COMMENT: nil
DIMENSION: 9
EDGE_WEIGHT_TYPE: EXPLICIT
EDGE_WEIGHT_FORMAT: FULL_MATRIX
EDGE_WEIGHT_SECTION
9999 1327 1335 1640 518 1362 1450 1435 1447 
1327 9999 417 662 1269 908 890 831 355 
1335 417 9999 328 1435 1297 1292 1235 772 
1640 662 328 9999 1763 1570 1550 1491 988 
518 1269 1435 1763 9999 969 1070 1072 1256 
1362 908 1297 1570 969 9999 105 135 627 
1450 890 1292 1550 1070 105 9999 60 582 
1435 831 1235 1491 1072 135 60 9999 523 
1447 355 772 988 1256 627 582 523 9999 
