data/processed_heuristic-threshold/instances/1/8/ds_1002_courier_87/pairwise.sol
9
0 4 5 6 7 8 1 3 2 
